NAME : kroC100-C-5-1-a__scheduled_bias_same_priority_ls20__26049.tour
COMMENT : Length = 26049.000
COMMENT : Generated by evaluate_ctspd.py for scheduled_bias_same_priority_ls20
TYPE : TOUR
DIMENSION : 100
TOUR_SECTION
1
44
66
92
10
45
81
97
96
87
52
11
84
48
51
16
37
29
46
61
9
78
82
7
26
32
24
53
27
15
13
79
64
20
42
55
67
65
31
47
6
54
75
22
8
17
25
90
34
58
98
88
28
39
38
71
56
43
5
86
50
72
83
62
80
77
2
35
68
30
21
23
91
95
94
76
70
89
41
59
73
3
69
74
100
33
57
36
14
60
4
93
99
19
63
18
49
12
40
85
-1
EOF
